n = 10;
k = 125394770;
price = [15469691, 18515598, 19222328, 19941614, 16929862, 15227947, 18602112, 15277138, 16423313, 16955309];
m = 8;
buy = [5, 5, 6, 7, 5, 4, 6, 7];
free = [2, 2, 2, 3, 2, 2, 3, 3];
